1255.0 13200.0 2733.0 
1142.0 13308.0 3034.0 
1138.0 13392.0 3114.0 
1179.0 13147.0 2782.0 
1243.0 13171.0 2737.0 
1263.0 13166.0 2733.0 
1184.0 13088.0 3068.0 
1140.0 13333.0 3061.0 
1179.0 13147.0 2782.0 
1166.0 13204.0 2890.0 
1184.0 13088.0 3068.0 
1143.0 13223.0 2949.0 
1143.0 13221.0 3009.0 
1243.0 13091.0 2955.0 
1143.0 13221.0 3009.0 
1143.0 13223.0 2949.0 
1138.0 13350.0 3125.0 
1196.0 13243.0 2779.0 
1143.0 13221.0 3009.0 
1203.0 13144.0 2969.0 
1255.0 13200.0 2733.0 
1143.0 13201.0 3021.0 
1203.0 13144.0 2969.0 
1143.0 13221.0 3009.0 
1166.0 13204.0 2890.0 
1135.0 13736.0 3494.0 
1124.0 13725.0 3527.0 
1179.0 13120.0 3032.0 
1120.0 13859.0 3626.0 
